32 5 
31 4 
30 4 
30 4 
30 4 
30 4 
30 4 
30 4 
30 4 
30 4 
30 4 
30 4 
30 4 
30 4 
30 4 
30 4 
30 4 
30 4 
30 4 
30 4 
30 4 
30 4 
30 4 
30 4 
30 4 
30 4 
30 4 
30 4 
30 4 
30 4 
31 4 
31 4 
30 4 
30 4 
31 4 
30 4 
30 4 
31 4 
30 4 
30 4 
30 4 
30 4 
30 4 
30 8 
30 4 
30 4 
30 4 
30 4 
30 4 
923 249 
915 265 
918 260 
913 260 
928 242 
918 253 
906 248 
921 255 
917 260 
910 260 
912 258 
917 251 
907 255 
914 249 
915 256 
902 256 
908 253 
918 262 
923 255 
918 243 
923 256 
920 254 
914 246 
911 266 
924 257 
909 253 
908 260 
913 256 
912 248 
916 260 
912 265 
918 248 
914 258 
913 258 
920 252 
921 244 
906 255 
913 243 
919 251 
917 259 
917 252 
914 242 
914 251 
912 254 
909 251 
897 250 
910 252 
909 257 
916 253 
933 262 
918 263 
925 257 
906 265 
910 258 
896 236 
914 257 
915 245 
907 263 
915 259 
917 249 
915 263 
919 250 
910 267 
908 262 
919 257 
922 251 
922 261 
922 257 
915 257 
922 256 
910 258 
912 245 
914 260 
910 256 
917 254 
908 266 
906 268 
921 249 
906 255 
918 271 
915 265 
908 261 
916 240 
920 254 
911 260 
897 252 
903 258 
920 254 
916 263 
926 267 
922 244 
908 255 
914 255 
922 241 
918 259 
912 252 
915 255 
923 254 
916 265 
913 251 
919 247 
913 253 
914 265 
910 261 
913 249 
927 252 
909 256 
913 249 
917 246 
915 249 
915 243 
908 249 
900 245 
898 255 
915 258 
917 244 
917 245 
920 249 
915 240 
915 257 
905 261 
905 268 
907 260 
923 247 
897 257 
923 251 
916 259 
910 264 
916 241 
922 241 
913 255 
920 239 
911 244 
906 254 
918 264 
916 250 
908 248 
900 258 
914 248 
910 243 
907 253 
909 264 
912 263 
922 252 
915 240 
913 245 
905 255 
918 249 
925 243 
912 256 
919 260 
922 254 
917 245 
926 244 
915 256 
916 263 
915 244 
909 258 
914 250 
915 248 
909 263 
912 257 
919 240 
915 255 
915 249 
912 244 
918 252 
927 254 
916 258 
918 240 
919 266 
913 244 
915 244 
915 249 
908 252 
915 243 
919 258 
911 248 
918 248 
910 250 
910 256 
917 245 
915 263 
920 258 
918 242 
907 253 
917 243 
919 241 
915 261 
918 263 
921 241 
917 260 
921 262 
914 253 
916 243 
923 249 
916 260 
919 251 
903 268 
919 250 
910 239 
900 256 
915 251 
904 244 
912 253 
923 252 
921 261 
918 264 
910 252 
917 247 
924 245 
906 245 
922 238 
913 244 
911 254 
915 256 
920 250 
915 239 
911 263 
915 253 
915 264 
903 261 
902 258 
915 263 
903 246 
913 255 
32 5 
31 4 
30 4 
30 4 
30 4 
30 4 
30 4 
30 4 
30 4 
30 4 
30 4 
30 4 
30 4 
30 4 
30 4 
30 4 
30 4 
30 4 
30 4 
30 4 
30 4 
30 4 
30 4 
30 4 
30 4 
30 4 
30 4 
30 4 
30 4 
30 4 
30 4 
30 4 
30 4 
30 4 
30 4 
30 4 
30 4 
30 4 
30 4 
30 4 
30 4 
30 4 
30 4 
30 4 
30 4 
30 4 
30 4 
30 4 
30 4 
30 4 
30 4 
30 4 
30 4 
30 4 
30 4 
30 4 
30 4 
30 4 
30 4 
32 5 
31 4 
31 4 
31 4 
31 4 
31 4 
31 4 
31 4 
37 4 
31 4 
923 251 
921 249 
919 256 
905 262 
917 257 
911 243 
911 262 
920 250 
913 253 
915 239 
914 255 
915 258 
912 265 
913 251 
913 259 
921 259 
913 252 
913 248 
917 249 
917 251 
917 249 
911 266 
909 251 
906 251 
913 257 
919 252 
917 249 
916 256 
903 261 
916 255 
914 265 
916 245 
915 252 
908 253 
901 259 
924 252 
918 245 
920 243 
915 252 
903 247 
909 251 
909 249 
922 244 
916 259 
910 247 
921 248 
917 254 
913 239 
907 246 
917 254 
903 241 
903 257 
907 248 
900 258 
907 246 
916 248 
919 244 
903 254 
912 257 
933 264 
922 234 
912 263 
925 263 
923 251 
914 253 
912 251 
925 257 
918 264 
911 254 
918 258 
909 259 
916 252 
918 266 
903 264 
912 255 
923 242 
914 254 
915 259 
907 241 
921 260 
910 246 
917 249 
917 257 
926 251 
910 247 
914 258 
922 257 
915 261 
911 243 
924 263 
910 252 
913 256 
913 253 
910 242 
915 245 
912 259 
913 257 
919 255 
913 248 
911 248 
917 241 
926 262 
923 256 
919 247 
918 260 
904 242 
929 265 
922 257 
928 243 
918 260 
918 237 
912 245 
903 258 
918 261 
919 248 
909 240 
916 244 
917 255 
917 273 
916 246 
911 246 
907 247 
913 245 
924 241 
911 265 
912 255 
909 255 
908 250 
914 256 
920 246 
914 262 
918 240 
909 240 
908 250 
912 237 
912 241 
905 250 
921 266 
916 248 
913 249 
916 248 
923 243 
915 248 
909 248 
914 251 
913 252 
917 248 
912 249 
907 253 
925 244 
916 254 
923 250 
910 257 
923 248 
924 266 
916 261 
914 258 
900 233 
916 253 
928 254 
913 246 
917 242 
919 250 
916 247 
922 243 
914 253 
915 263 
913 240 
911 250 
922 253 
911 251 
906 256 
906 256 
907 258 
907 241 
916 249 
907 234 
35 5 
31 4 
30 4 
30 4 
30 4 
30 4 
30 4 
30 4 
30 4 
30 4 
30 4 
30 4 
30 4 
30 4 
30 4 
30 4 
30 4 
30 4 
30 4 
30 4 
30 4 
30 4 
30 4 
30 4 
30 4 
30 4 
30 4 
30 4 
30 4 
30 4 
30 4 
30 4 
30 4 
30 4 
30 4 
30 4 
30 4 
30 4 
30 4 
30 4 
30 4 
30 4 
30 4 
30 4 
30 4 
30 4 
30 4 
30 4 
30 4 
30 4 
30 4 
30 4 
30 4 
30 4 
30 4 
30 4 
30 4 
30 4 
30 4 
31 5 
30 4 
30 4 
30 4 
30 4 
30 4 
30 4 
30 4 
38 4 
30 4 
30 4 
30 4 
30 4 
30 4 
30 4 
30 4 
30 4 
30 4 
30 4 
30 4 
30 4 
30 4 
30 4 
30 4 
30 4 
30 4 
30 4 
30 4 
30 4 
30 4 
31 5 
30 4 
30 10 
30 4 
30 4 
30 4 
30 4 
30 4 
30 4 
30 4 
30 4 
30 4 
30 4 
30 4 
30 4 
30 4 
30 4 
30 4 
30 4 
30 4 
30 4 
30 4 
30 4 
30 4 
30 4 
30 4 
30 4 
30 4 
30 4 
30 4 
31 5 
30 4 
30 4 
30 4 
30 4 
30 4 
30 4 
30 4 
30 4 
30 4 
30 4 
30 4 
30 4 
30 4 
30 4 
30 4 
30 4 
30 4 
30 4 
30 4 
30 4 
30 4 
35 4 
30 4 
30 4 
30 4 
30 4 
30 4 
30 4 
30 4 
32 5 
30 4 
30 4 
30 4 
30 4 
30 4 
30 4 
30 4 
30 4 
30 4 
30 4 
30 4 
30 4 
30 4 
30 4 
30 4 
30 4 
30 4 
30 4 
30 4 
30 4 
30 4 
30 4 
35 4 
30 4 
30 4 
30 4 
30 4 
30 4 
30 4 
31 5 
30 4 
30 4 
30 4 
30 4 
30 4 
30 4 
30 4 
30 4 
30 4 
30 4 
30 4 
30 4 
30 4 
30 4 
30 4 
30 4 
30 4 
30 4 
30 4 
34 5 
31 4 
30 4 
30 4 
30 4 
30 4 
30 4 
30 4 
30 4 
30 4 
30 4 
30 4 
37 4 
30 4 
30 4 
30 4 
30 4 
30 4 
30 4 
30 4 
30 4 
30 4 
30 4 
30 4 
30 4 
30 4 
30 4 
30 4 
30 4 
30 4 
30 4 
30 4 
30 4 
30 4 
30 4 
30 4 
30 4 
30 4 
30 4 
30 4 
30 4 
30 4 
30 4 
30 4 
30 4 
30 4 
30 4 
30 4 
30 4 
30 4 
30 4 
30 4 
30 4 
30 4 
30 4 
30 4 
30 4 
30 4 
30 4 
31 5 
30 4 
30 4 
30 4 
30 4 
30 4 
30 4 
30 4 
30 4 
30 4 
30 4 
30 4 
30 4 
30 4 
30 4 
30 4 
30 4 
30 4 
30 4 
30 4 
30 4 
30 4 
30 4 
30 4 
30 4 
30 4 
30 4 
30 4 
30 4 
30 4 
31 5 
31 4 
31 4 
30 4 
31 4 
31 4 
31 4 
31 4 
31 4 
31 4 
31 4 
30 4 
30 4 
30 4 
30 4 
30 4 
30 4 
30 4 
30 4 
30 4 
36 4 
30 4 
30 4 
30 4 
30 4 
30 4 
30 4 
30 4 
30 4 
30 4 
31 5 
31 4 
30 4 
30 4 
30 4 
30 4 
30 4 
30 4 
30 4 
30 4 
30 4 
30 4 
30 4 
30 4 
30 4 
30 4 
30 4 
30 4 
30 4 
30 4 
30 4 
30 4 
30 4 
30 4 
30 4 
30 4 
30 4 
30 4 
30 4 
30 4 
31 5 
30 4 
30 4 
30 4 
30 4 
30 4 
30 4 
30 4 
30 4 
30 4 
30 4 
30 4 
30 4 
30 4 
30 4 
30 4 
30 4 
30 4 
30 4 
30 4 
30 4 
30 4 
30 4 
30 4 
30 4 
30 4 
30 4 
30 4 
30 4 
30 4 
32 5 
31 4 
31 4 
31 4 
31 4 
31 4 
31 4 
31 4 
31 4 
31 4 
31 4 
31 4 
31 4 
31 4 
31 4 
31 4 
31 4 
31 4 
31 4 
31 4 
33 5 
27 5 
27 4 
26 4 
27 4 
27 4 
27 4 
27 4 
26 4 
27 4 
26 4 
27 4 
27 4 
27 4 
27 4 
27 4 
27 4 
27 4 
27 4 
27 4 
27 4 
26 4 
26 4 
26 4 
27 4 
27 4 
26 4 
27 4 
27 4 
27 4 
27 5 
27 4 
27 4 
26 4 
26 4 
27 4 
26 4 
26 4 
26 4 
26 4 
26 4 
27 4 
27 4 
26 4 
26 4 
27 4 
26 4 
26 4 
26 4 
26 4 
31 4 
27 4 
26 4 
27 4 
26 4 
26 4 
26 4 
27 4 
26 4 
32 5 
27 4 
27 4 
27 4 
27 4 
27 4 
27 4 
27 4 
27 4 
27 4 
27 4 
27 4 
27 4 
27 4 
26 4 
27 4 
27 4 
27 4 
27 4 
27 4 
27 4 
27 4 
27 4 
26 4 
27 4 
27 4 
26 4 
27 4 
26 4 
26 4 
27 4 
27 4 
26 4 
26 4 
26 4 
26 4 
26 4 
26 4 
26 4 
26 4 
26 4 
26 4 
26 4 
26 4 
26 4 
26 4 
26 4 
26 4 
26 4 
26 4 
26 4 
26 4 
26 4 
26 4 
26 4 
26 4 
26 4 
26 4 
26 4 
28 5 
27 4 
27 4 
27 4 
26 4 
27 4 
27 4 
27 4 
27 4 
26 4 
26 4 
27 4 
27 4 
26 4 
27 4 
26 4 
27 4 
27 4 
26 4 
26 4 
26 4 
26 4 
27 4 
27 4 
26 4 
27 4 
27 4 
27 4 
27 4 
27 4 
27 5 
27 4 
26 4 
26 4 
26 4 
26 4 
26 4 
26 4 
26 4 
26 4 
26 4 
26 4 
26 4 
26 4 
26 4 
26 4 
26 4 
26 4 
26 4 
26 4 
26 4 
26 4 
26 4 
26 4 
26 4 
26 4 
26 4 
26 4 
26 4 
26 4 
28 5 
27 4 
26 4 
26 4 
26 4 
26 4 
26 4 
26 4 
26 4 
26 4 
26 4 
26 4 
26 4 
26 4 
26 4 
26 4 
26 4 
26 4 
26 4 
26 4 
26 4 
26 4 
26 4 
26 4 
26 4 
26 4 
26 4 
26 4 
26 4 
26 4 
30 10 
29 5 
26 4 
26 4 
26 4 
26 4 
26 4 
26 4 
26 4 
26 4 
26 4 
26 4 
26 4 
26 4 
26 4 
26 4 
26 4 
26 4 
26 4 
26 4 
26 4 
26 4 
26 4 
26 4 
26 4 
26 4 
26 4 
26 4 
26 4 
26 4 
31 10 
28 5 
26 4 
26 4 
26 4 
26 4 
26 4 
26 4 
26 4 
26 4 
26 4 
26 4 
26 4 
26 4 
26 4 
26 4 
26 4 
26 4 
26 4 
26 4 
33 5 
27 4 
26 4 
26 3 
26 3 
26 3 
26 3 
26 3 
26 3 
26 3 
26 3 
26 3 
26 3 
26 3 
26 3 
26 3 
26 3 
26 3 
26 3 
26 3 
26 3 
26 3 
32 3 
26 3 
26 3 
26 3 
26 3 
26 3 
26 3 
26 3 
27 4 
26 4 
26 3 
26 3 
26 3 
26 4 
26 3 
26 3 
26 3 
26 3 
26 3 
26 4 
26 3 
26 4 
26 3 
26 4 
26 3 
26 3 
26 3 
26 4 
26 3 
26 3 
26 3 
26 3 
26 3 
26 3 
26 3 
26 4 
26 3 
28 5 
27 4 
26 4 
27 4 
26 4 
27 4 
26 4 
26 4 
26 4 
26 4 
26 4 
26 4 
26 4 
26 4 
26 4 
26 4 
26 4 
26 4 
26 4 
26 4 
26 4 
26 4 
26 4 
26 4 
26 4 
26 4 
26 4 
26 4 
26 4 
26 4 
28 5 
27 4 
26 4 
26 4 
26 4 
26 4 
26 4 
26 4 
26 4 
26 4 
27 4 
27 4 
26 4 
26 4 
26 4 
26 4 
26 4 
27 4 
26 4 
26 4 
26 4 
26 4 
26 4 
26 4 
26 4 
26 4 
26 4 
26 4 
26 4 
26 4 
28 5 
27 4 
26 4 
26 4 
26 4 
27 4 
26 4 
26 4 
26 4 
26 4 
26 4 
26 4 
26 4 
26 4 
26 4 
26 4 
26 4 
26 4 
26 4 
26 4 
26 4 
26 4 
26 4 
26 4 
26 4 
27 4 
26 4 
26 4 
26 4 
26 4 
28 5 
27 4 
26 4 
26 4 
26 4 
27 4 
26 4 
27 4 
26 4 
26 4 
26 4 
26 4 
26 4 
26 4 
26 4 
26 4 
26 4 
26 4 
26 4 
26 4 
26 4 
26 4 
26 4 
26 4 
26 4 
27 4 
26 4 
26 4 
27 4 
26 4 
28 5 
27 4 
27 4 
27 4 
27 4 
26 4 
26 4 
26 4 
27 4 
26 4 
26 4 
26 4 
26 4 
26 4 
26 4 
26 4 
26 4 
26 4 
26 4 
26 4 
32 5 
27 4 
27 3 
27 4 
26 3 
27 3 
26 3 
27 3 
26 3 
26 3 
27 3 
26 3 
27 3 
27 3 
26 3 
26 3 
27 3 
26 3 
27 3 
26 3 
27 3 
26 3 
26 3 
26 3 
26 3 
27 3 
26 3 
27 3 
26 3 
26 3 
26 4 
27 4 
26 3 
26 3 
26 4 
26 3 
26 3 
26 4 
26 3 
26 3 
26 3 
26 3 
26 3 
26 4 
26 4 
26 3 
26 3 
26 4 
26 3 
26 3 
26 3 
26 3 
26 4 
26 3 
26 4 
26 3 
26 3 
26 3 
26 3 
28 5 
27 4 
27 4 
27 4 
27 4 
26 4 
26 4 
26 4 
26 4 
27 4 
26 4 
26 4 
27 4 
27 4 
27 4 
27 4 
26 4 
26 4 
27 4 
26 4 
27 4 
26 4 
26 4 
27 4 
27 4 
26 4 
26 4 
26 4 
27 4 
26 4 
28 5 
27 4 
26 4 
26 4 
33 4 
26 4 
26 4 
26 4 
26 4 
26 4 
26 4 
26 4 
26 4 
26 4 
26 4 
26 4 
26 4 
26 4 
26 4 
26 4 
26 4 
26 4 
26 4 
26 4 
26 4 
26 4 
26 4 
26 4 
26 4 
26 4 
28 5 
27 4 
26 4 
26 4 
26 4 
26 4 
26 4 
26 4 
26 4 
26 4 
26 4 
26 4 
26 4 
26 4 
26 4 
26 4 
26 4 
26 4 
26 4 
26 4 
26 4 
26 4 
26 4 
26 4 
26 4 
26 4 
26 4 
26 4 
26 4 
26 4 
27 5 
27 4 
26 4 
26 4 
26 4 
26 4 
26 4 
26 4 
26 4 
26 4 
26 4 
26 4 
26 4 
26 4 
26 4 
26 4 
26 4 
26 4 
26 4 
26 4 
26 4 
26 4 
26 4 
26 4 
26 4 
26 4 
26 4 
26 4 
26 4 
26 4 
28 5 
28 4 
26 4 
27 4 
27 4 
26 4 
26 4 
27 4 
27 4 
26 4 
27 4 
27 4 
26 4 
26 4 
27 4 
26 4 
27 4 
26 4 
26 4 
26 4 
37 6 
31 4 
30 4 
30 4 
30 4 
30 4 
30 4 
30 4 
30 4 
30 4 
30 4 
30 4 
30 4 
30 4 
30 4 
30 4 
30 4 
30 4 
30 4 
30 4 
30 4 
30 4 
30 4 
30 4 
30 4 
30 4 
30 4 
30 4 
30 4 
30 4 
30 4 
30 4 
30 4 
30 4 
30 4 
30 4 
30 4 
30 4 
30 4 
30 4 
30 4 
30 4 
30 4 
30 4 
30 4 
30 4 
30 4 
30 4 
30 4 
30 4 
30 4 
30 4 
30 4 
30 4 
30 4 
30 4 
30 4 
30 4 
30 4 
32 6 
31 4 
30 4 
30 4 
30 4 
30 4 
30 4 
30 4 
30 4 
30 4 
30 4 
30 4 
30 4 
30 4 
30 4 
30 4 
30 4 
30 4 
30 4 
30 4 
30 4 
30 4 
30 4 
30 4 
30 4 
30 4 
30 4 
30 4 
30 4 
30 4 
32 6 
31 4 
30 4 
30 4 
30 4 
30 4 
30 4 
30 4 
30 4 
30 4 
32 4 
30 4 
30 4 
30 4 
30 4 
30 4 
30 4 
30 4 
30 4 
30 4 
30 4 
30 4 
30 4 
30 4 
30 4 
30 4 
30 4 
30 4 
30 4 
30 4 
31 5 
30 4 
30 4 
30 4 
30 4 
30 4 
30 4 
30 4 
30 4 
30 4 
30 4 
30 4 
30 4 
30 4 
30 4 
30 4 
30 4 
30 4 
30 4 
30 4 
30 4 
30 4 
30 4 
30 4 
30 4 
30 4 
30 4 
30 4 
30 4 
30 4 
31 5 
30 4 
30 4 
30 4 
30 4 
30 4 
30 4 
30 4 
30 4 
30 4 
30 4 
30 4 
30 4 
30 4 
30 4 
30 4 
30 4 
30 4 
30 4 
30 4 
30 4 
30 4 
30 4 
30 4 
30 4 
30 4 
30 4 
30 4 
30 4 
30 4 
32 5 
31 4 
31 4 
31 4 
31 4 
30 4 
30 4 
30 4 
31 4 
30 4 
30 4 
30 4 
30 4 
30 4 
31 4 
30 4 
30 4 
31 4 
30 4 
30 4 
35 5 
30 4 
30 4 
30 4 
30 4 
30 4 
30 4 
30 4 
30 4 
30 4 
30 4 
30 4 
30 4 
30 4 
30 4 
30 4 
30 4 
30 4 
30 4 
30 4 
30 4 
30 4 
30 4 
30 4 
30 4 
30 4 
30 4 
30 4 
30 4 
30 4 
30 4 
30 4 
30 4 
30 4 
30 4 
30 4 
30 4 
37 4 
30 4 
30 4 
30 4 
30 4 
30 4 
30 4 
30 4 
30 4 
30 4 
30 4 
30 4 
30 4 
30 4 
30 4 
30 4 
30 4 
30 4 
30 4 
30 4 
30 4 
30 4 
31 5 
30 4 
30 4 
30 4 
30 4 
30 4 
30 4 
30 4 
30 4 
30 4 
30 4 
30 4 
30 4 
30 4 
30 4 
30 4 
30 4 
30 4 
30 4 
30 4 
30 4 
30 4 
30 4 
30 4 
30 4 
30 4 
30 4 
30 4 
30 4 
30 4 
31 5 
30 4 
30 4 
30 4 
30 4 
30 4 
30 4 
30 4 
30 4 
30 4 
30 4 
30 4 
30 4 
30 4 
30 4 
30 4 
30 4 
30 4 
30 4 
30 4 
30 4 
30 4 
30 4 
30 4 
30 4 
30 4 
30 4 
30 4 
30 4 
30 4 
31 5 
30 4 
30 4 
30 4 
30 4 
30 4 
30 4 
30 4 
30 4 
30 4 
30 4 
30 4 
30 4 
30 4 
30 4 
30 4 
30 4 
30 4 
30 4 
30 4 
30 4 
30 4 
30 4 
30 4 
30 4 
30 4 
30 4 
30 4 
30 4 
30 4 
32 5 
31 4 
30 4 
30 4 
30 4 
30 4 
30 4 
30 4 
30 4 
30 4 
30 4 
30 4 
30 4 
30 4 
30 4 
30 4 
30 4 
30 4 
30 4 
30 4 
30 4 
30 4 
30 4 
30 4 
30 4 
30 4 
30 4 
30 4 
30 4 
30 4 
32 5 
30 4 
30 4 
30 4 
30 4 
30 4 
30 4 
30 4 
30 4 
30 4 
30 4 
30 4 
30 4 
30 4 
30 4 
30 4 
30 4 
30 4 
30 4 
30 4 
36 5 
30 4 
30 4 
30 4 
30 4 
30 4 
30 4 
30 4 
30 4 
30 4 
30 4 
30 4 
30 4 
30 4 
30 4 
30 4 
30 4 
30 4 
30 4 
30 4 
30 4 
30 4 
30 4 
30 4 
30 4 
30 4 
30 4 
30 4 
30 4 
30 4 
30 4 
30 4 
30 4 
30 4 
34 4 
30 4 
30 4 
30 4 
30 4 
30 4 
30 4 
30 4 
30 4 
30 4 
30 4 
30 4 
30 4 
30 4 
30 4 
30 4 
30 4 
30 4 
30 4 
30 4 
30 4 
30 4 
30 4 
30 4 
30 4 
31 6 
30 4 
30 4 
30 4 
30 4 
30 4 
30 4 
30 4 
30 4 
30 4 
30 4 
30 4 
30 4 
30 4 
30 4 
30 4 
30 4 
30 4 
30 4 
30 4 
30 4 
30 4 
30 4 
30 4 
30 4 
30 4 
30 4 
30 4 
30 4 
30 4 
31 5 
30 4 
30 4 
30 4 
30 4 
30 4 
30 4 
30 4 
30 4 
30 4 
30 4 
30 4 
30 4 
30 4 
30 4 
30 4 
30 4 
30 4 
30 4 
30 4 
30 4 
30 4 
30 4 
30 4 
30 4 
30 4 
30 4 
30 4 
30 4 
30 4 
31 5 
30 4 
30 4 
30 4 
30 4 
30 4 
30 4 
30 4 
30 4 
30 4 
30 4 
30 4 
30 4 
30 4 
30 4 
30 4 
30 4 
30 4 
30 4 
30 4 
30 4 
30 4 
30 4 
30 4 
30 4 
30 4 
30 4 
30 4 
30 4 
30 4 
31 5 
30 4 
30 4 
30 4 
30 4 
30 4 
30 4 
30 4 
30 4 
30 4 
30 4 
30 4 
30 4 
30 4 
30 4 
30 4 
30 4 
34 4 
30 4 
30 4 
30 4 
30 4 
30 4 
30 4 
30 4 
30 4 
30 4 
30 4 
30 4 
30 4 
32 5 
31 4 
31 4 
41 4 
41 4 
41 4 
61 4 
52 4 
71 4 
72 4 
41 4 
30 4 
30 4 
30 4 
30 4 
30 4 
30 4 
30 4 
30 4 
30 4 
32 6 
28 4 
26 4 
26 4 
26 4 
26 4 
26 4 
26 4 
26 4 
26 4 
26 4 
26 4 
26 4 
26 4 
26 4 
26 4 
26 4 
26 4 
26 4 
26 4 
26 4 
26 4 
26 4 
26 4 
26 4 
26 4 
26 4 
26 4 
26 4 
26 4 
27 4 
27 4 
26 4 
26 4 
26 4 
26 4 
26 4 
26 4 
26 4 
26 4 
26 4 
26 4 
26 4 
26 4 
26 4 
26 4 
33 4 
26 4 
26 4 
26 4 
26 4 
26 4 
26 4 
26 4 
26 4 
26 4 
26 4 
26 4 
26 4 
28 6 
27 4 
27 4 
26 4 
27 4 
26 4 
27 4 
27 4 
26 4 
27 4 
26 4 
27 4 
26 4 
26 4 
27 4 
27 4 
27 4 
27 4 
27 4 
27 4 
26 4 
27 4 
26 4 
26 4 
26 4 
26 4 
27 4 
26 4 
27 4 
26 4 
28 5 
27 4 
27 4 
27 4 
27 4 
27 4 
27 4 
26 4 
27 4 
27 4 
32 5 
28 4 
27 4 
27 4 
27 4 
27 4 
27 4 
27 4 
27 4 
27 4 
27 4 
27 4 
27 4 
27 4 
27 4 
27 4 
27 4 
27 4 
27 4 
27 4 
27 4 
27 4 
27 4 
27 4 
27 4 
27 4 
27 4 
27 4 
27 4 
27 4 
27 4 
27 4 
27 4 
26 4 
27 4 
26 4 
27 4 
26 4 
26 4 
26 4 
27 4 
26 4 
27 4 
26 4 
26 4 
26 4 
27 4 
26 4 
26 4 
26 4 
26 4 
27 4 
26 4 
26 4 
26 4 
26 4 
26 4 
26 4 
26 4 
28 6 
27 4 
26 4 
26 4 
26 4 
26 4 
26 4 
26 4 
26 4 
26 4 
26 4 
26 4 
26 4 
26 4 
26 4 
26 4 
26 4 
26 4 
26 4 
26 4 
26 4 
26 4 
26 4 
26 4 
26 4 
26 4 
26 4 
26 4 
26 4 
26 4 
28 6 
27 4 
27 4 
27 4 
27 4 
27 4 
27 4 
26 4 
27 4 
27 4 
33 6 
27 4 
27 4 
26 4 
27 4 
27 4 
27 4 
27 4 
27 4 
27 4 
27 4 
27 4 
27 4 
27 4 
27 4 
27 4 
27 4 
27 4 
26 4 
26 4 
27 4 
26 4 
27 4 
26 4 
27 4 
26 4 
27 4 
27 4 
27 4 
27 4 
26 4 
27 4 
26 4 
26 4 
26 4 
26 4 
26 4 
26 4 
26 4 
26 4 
26 4 
26 4 
26 4 
26 4 
26 4 
26 4 
26 4 
26 4 
26 4 
26 4 
26 4 
26 4 
26 4 
26 4 
26 4 
26 4 
26 4 
26 4 
26 4 
28 5 
27 4 
27 4 
27 4 
26 4 
27 4 
27 4 
27 4 
26 4 
27 4 
27 4 
27 4 
27 4 
26 4 
26 4 
26 4 
26 4 
26 4 
26 4 
27 4 
26 4 
27 4 
27 4 
26 4 
27 4 
27 4 
27 4 
27 4 
27 4 
27 4 
28 5 
27 4 
27 4 
27 4 
27 4 
27 4 
27 4 
27 4 
27 4 
27 4 
31 5 
28 4 
27 3 
26 3 
26 3 
27 3 
26 3 
27 4 
27 3 
26 3 
26 3 
26 3 
26 3 
27 3 
26 3 
26 3 
26 3 
26 3 
26 3 
26 3 
27 3 
27 3 
27 3 
26 3 
27 3 
26 3 
27 3 
27 3 
27 3 
27 3 
26 4 
26 4 
26 3 
26 4 
26 3 
26 3 
26 4 
26 3 
26 4 
31 4 
26 3 
26 3 
26 3 
26 3 
26 3 
26 3 
26 3 
26 4 
26 4 
26 3 
26 3 
26 4 
26 3 
26 4 
26 3 
26 3 
26 3 
26 3 
26 3 
28 5 
27 4 
26 4 
26 3 
26 3 
26 3 
26 4 
26 3 
26 3 
26 3 
26 3 
26 3 
26 3 
26 3 
26 3 
26 3 
26 3 
26 3 
26 3 
26 3 
26 3 
26 3 
26 3 
26 3 
26 4 
26 3 
26 3 
26 3 
26 4 
26 3 
28 5 
27 4 
27 3 
27 3 
27 3 
27 3 
26 3 
27 3 
27 3 
27 3 
33 5 
30 4 
30 4 
30 4 
30 4 
30 4 
30 4 
30 4 
30 4 
30 4 
30 4 
30 4 
30 4 
30 4 
30 4 
30 4 
30 4 
30 4 
30 4 
30 4 
30 4 
30 4 
30 4 
30 4 
30 4 
30 4 
30 4 
30 4 
30 4 
30 4 
30 4 
30 4 
30 4 
30 4 
30 4 
30 4 
30 4 
30 4 
30 4 
30 4 
30 4 
30 4 
30 4 
30 4 
30 4 
30 4 
30 4 
30 4 
30 4 
30 4 
30 4 
30 4 
30 4 
30 4 
30 4 
30 4 
30 4 
30 4 
30 4 
31 5 
30 4 
30 4 
30 4 
30 4 
30 4 
30 4 
30 4 
30 4 
30 4 
30 4 
30 4 
30 4 
30 4 
30 4 
30 4 
30 4 
30 4 
30 4 
30 4 
30 4 
30 4 
30 4 
30 4 
30 4 
30 4 
30 4 
30 4 
34 4 
30 4 
31 5 
30 4 
30 4 
30 4 
30 4 
30 4 
30 4 
30 4 
30 4 
30 4 
30 5 
27 4 
27 4 
26 4 
26 3 
26 3 
26 3 
26 4 
26 3 
26 3 
26 3 
26 3 
26 3 
26 3 
26 3 
26 3 
26 3 
26 3 
26 3 
26 3 
26 4 
26 3 
26 3 
26 3 
26 3 
26 3 
26 3 
26 3 
26 3 
26 3 
27 4 
27 4 
26 3 
26 3 
26 4 
26 3 
26 4 
26 3 
26 3 
26 3 
26 4 
26 3 
26 4 
26 3 
26 4 
26 4 
26 4 
26 3 
26 4 
26 4 
26 4 
26 3 
26 4 
26 3 
26 4 
26 4 
26 4 
26 3 
26 3 
28 5 
27 4 
26 4 
26 3 
26 3 
26 3 
26 3 
26 4 
26 3 
26 3 
26 3 
26 3 
26 3 
26 3 
26 3 
26 3 
26 3 
26 3 
32 4 
26 3 
26 3 
26 3 
26 3 
26 3 
26 3 
26 4 
26 3 
26 3 
26 3 
26 3 
28 5 
27 4 
26 4 
26 3 
26 3 
26 3 
26 3 
27 3 
26 3 
26 3 
32 5 
27 4 
26 4 
26 3 
26 3 
26 4 
26 3 
26 3 
26 3 
26 3 
26 3 
26 3 
26 3 
26 3 
26 3 
26 3 
26 3 
26 3 
26 3 
26 3 
26 3 
26 3 
26 3 
26 3 
26 3 
26 3 
26 4 
26 3 
26 3 
26 4 
27 4 
27 4 
26 3 
26 3 
26 3 
26 4 
26 4 
26 3 
26 3 
26 4 
26 4 
26 3 
26 3 
26 3 
26 4 
26 4 
26 4 
26 3 
26 4 
26 3 
26 3 
26 4 
26 3 
26 3 
26 4 
26 3 
26 3 
26 4 
26 4 
28 5 
27 4 
27 4 
26 3 
27 3 
27 3 
26 3 
27 3 
27 3 
26 3 
27 3 
27 3 
26 10 
27 3 
27 3 
27 3 
26 3 
26 3 
27 3 
27 3 
26 3 
26 4 
27 3 
26 3 
26 3 
27 3 
27 3 
26 3 
26 3 
26 3 
28 5 
27 4 
26 3 
26 3 
26 3 
26 4 
26 3 
26 3 
26 3 
35 3 
32 5 
27 4 
26 3 
26 4 
26 3 
26 3 
26 3 
26 3 
26 4 
26 3 
26 3 
26 3 
26 3 
26 3 
26 3 
26 3 
26 3 
26 3 
26 3 
26 3 
26 3 
26 3 
26 3 
26 3 
26 3 
26 3 
26 3 
26 3 
26 3 
26 3 
27 4 
27 4 
26 4 
26 4 
26 3 
26 4 
26 3 
26 3 
26 3 
26 3 
26 4 
26 3 
26 3 
26 4 
26 3 
26 4 
26 3 
26 3 
26 3 
26 3 
26 3 
26 3 
26 3 
26 3 
26 3 
26 3 
26 3 
33 4 
26 3 
28 5 
27 4 
26 3 
26 4 
26 3 
26 3 
26 3 
26 3 
27 3 
26 3 
26 4 
26 3 
26 3 
26 3 
26 3 
26 3 
26 3 
26 3 
26 3 
26 3 
26 3 
26 3 
26 3 
26 3 
26 3 
26 4 
26 3 
26 3 
26 3 
26 3 
28 5 
27 4 
26 3 
26 3 
26 3 
26 3 
26 3 
26 3 
26 3 
26 4 
34 5 
31 4 
30 4 
30 4 
30 4 
30 4 
30 4 
30 4 
30 4 
30 4 
30 4 
30 4 
30 4 
30 4 
30 4 
30 4 
30 4 
30 4 
30 4 
30 4 
30 4 
30 4 
30 4 
30 4 
30 4 
30 4 
30 4 
30 4 
30 4 
30 4 
36 4 
30 4 
30 4 
30 4 
30 4 
30 4 
30 4 
30 4 
30 4 
30 4 
30 4 
30 4 
30 4 
30 4 
30 4 
30 4 
30 4 
30 4 
30 4 
30 4 
30 4 
30 4 
30 4 
30 4 
30 4 
30 4 
30 4 
30 4 
30 4 
32 5 
30 4 
30 4 
30 4 
30 4 
30 4 
30 4 
30 4 
30 4 
30 4 
30 4 
30 4 
30 4 
30 4 
30 4 
30 4 
30 4 
30 4 
30 4 
30 4 
30 4 
30 4 
30 4 
30 4 
30 4 
30 4 
30 4 
30 4 
30 4 
30 4 
41 5 
38 4 
38 4 
30 4 
30 4 
30 4 
30 4 
30 4 
30 4 
30 4 
33 5 
31 4 
30 4 
30 4 
30 4 
30 4 
30 4 
30 4 
30 4 
30 4 
30 4 
30 4 
30 4 
30 4 
30 4 
30 4 
30 4 
30 4 
30 4 
30 4 
30 4 
30 4 
30 4 
30 4 
30 4 
30 4 
30 4 
30 4 
30 4 
30 4 
30 4 
30 4 
30 4 
30 4 
30 4 
30 4 
30 4 
30 4 
30 4 
30 4 
30 4 
30 4 
30 4 
30 4 
30 4 
30 4 
30 4 
30 4 
30 4 
30 4 
30 4 
30 4 
30 4 
30 4 
30 4 
30 4 
30 4 
30 4 
30 4 
32 5 
31 4 
30 4 
30 4 
30 4 
30 4 
30 4 
30 4 
30 4 
30 4 
30 4 
30 4 
30 4 
30 4 
30 4 
30 4 
30 4 
30 4 
30 4 
30 4 
30 4 
30 4 
30 4 
30 4 
30 4 
35 4 
30 4 
30 4 
30 4 
30 4 
31 5 
31 4 
30 4 
30 4 
30 4 
30 4 
37 4 
30 4 
30 4 
30 4 
55 8 
32 4 
30 4 
30 4 
30 4 
30 4 
30 4 
30 4 
30 4 
30 4 
30 4 
30 4 
30 4 
30 4 
30 4 
30 4 
30 4 
30 4 
30 4 
30 4 
30 4 
30 4 
30 4 
30 4 
30 4 
30 4 
46 6 
34 7 
51 5 
30 4 
30 4 
30 4 
30 4 
30 4 
30 4 
30 4 
30 4 
30 4 
30 4 
30 4 
30 4 
30 4 
30 4 
30 4 
30 4 
30 4 
30 4 
30 4 
30 4 
30 4 
30 4 
30 4 
30 4 
30 4 
30 4 
30 4 
30 4 
30 4 
30 4 
32 5 
30 4 
30 4 
30 4 
30 4 
30 4 
30 4 
30 4 
30 4 
30 4 
30 4 
30 4 
30 4 
30 4 
30 4 
30 4 
30 4 
30 4 
30 4 
30 4 
30 4 
30 4 
30 4 
30 4 
30 4 
30 4 
30 4 
30 4 
30 4 
30 4 
32 5 
31 4 
30 4 
30 4 
30 4 
30 4 
30 4 
30 4 
30 4 
30 4 
